Solver command line: []

Read LP format model from file C:\Users\wlhlm\AppData\Local\Temp\tmpg9lmwipc.pyomo.lp
Reading time = 2.50 seconds
objective: 996960 rows, 878399 columns, 2200350 nonzeros
Set parameter MIPGap to value 0.03
Gurobi Optimizer version 12.0.1 build v12.0.1rc0 (win64 - Windows 11.0 (26100.2))

CPU model: Intel(R) Core(TM) Ultra 7 258V, instruction set [SSE2|AVX|AVX2]
Thread count: 8 physical cores, 8 logical processors, using up to 8 threads

Non-default parameters:
MIPGap  0.03

Optimize a model with 996960 rows, 878399 columns and 2200350 nonzeros
Model fingerprint: 0x64c0af69
Model has 8783 quadratic constraints
Variable types: 755424 continuous, 122975 integer (105408 binary)
Coefficient statistics:
  Matrix range     [6e-03, 2e+02]
  QMatrix range    [1e+00, 1e+00]
  Objective range  [1e-02, 4e+02]
  Bounds range     [1e+00, 3e+00]
  RHS range        [8e-05, 1e+04]
Presolve removed 788263 rows and 654117 columns
Presolve time: 0.81s
Presolved: 208697 rows, 224282 columns, 650882 nonzeros
Variable types: 143315 continuous, 80967 integer (72184 binary)
Performing another presolve...
Presolve removed 70265 rows and 70267 columns (presolve time = 8s)...
Presolve removed 70265 rows and 70267 columns
Presolve time: 8.10s
Deterministic concurrent LP optimizer: primal and dual simplex
Showing primal log only...


Root simplex log...

Iteration    Objective       Primal Inf.    Dual Inf.      Time
       0    1.3468345e+08   1.390187e+07   3.129716e+13     10s
Concurrent spin time: 0.01s

Solved with dual simplex

Root simplex log...

Iteration    Objective       Primal Inf.    Dual Inf.      Time
   65006    1.2708324e+08   0.000000e+00   0.000000e+00     15s

Root relaxation: objective 1.270832e+08, 65006 iterations, 5.04 seconds (6.40 work units)
Total elapsed time = 14.82s (DegenMoves)
Total elapsed time = 15.45s (DegenMoves)

    Nodes    |    Current Node    |     Objective Bounds      |     Work
 Expl Unexpl |  Obj  Depth IntInf | Incumbent    BestBd   Gap | It/Node Time

     0     0 1.2708e+08    0  310          - 1.2708e+08      -     -   17s
H    0     0                    1.444546e+08 1.2708e+08  12.0%     -   20s
     0     0 1.2708e+08    0  396 1.4445e+08 1.2708e+08  12.0%     -   21s
     0     0 1.2708e+08    0  402 1.4445e+08 1.2708e+08  12.0%     -   23s
     0     0 1.2708e+08    0  406 1.4445e+08 1.2708e+08  12.0%     -   23s
     0     0 1.2708e+08    0  346 1.4445e+08 1.2708e+08  12.0%     -   24s
H    0     0                    1.444203e+08 1.2708e+08  12.0%     -   25s
     0     0 1.2708e+08    0  323 1.4442e+08 1.2708e+08  12.0%     -   26s
     0     0 1.2708e+08    0  329 1.4442e+08 1.2708e+08  12.0%     -   26s
     0     0 1.2708e+08    0  322 1.4442e+08 1.2708e+08  12.0%     -   29s
     0     0 1.2708e+08    0  320 1.4442e+08 1.2708e+08  12.0%     -   31s
     0     0 1.2708e+08    0  325 1.4442e+08 1.2708e+08  12.0%     -   34s
     0     0 1.2708e+08    0  320 1.4442e+08 1.2708e+08  12.0%     -   35s
     0     0 1.2708e+08    0  311 1.4442e+08 1.2708e+08  12.0%     -   35s
     0     0 1.2708e+08    0  316 1.4442e+08 1.2708e+08  12.0%     -   37s
     0     0 1.2708e+08    0  312 1.4442e+08 1.2708e+08  12.0%     -   38s
H    0     0                    1.439165e+08 1.2708e+08  11.7%     -   39s
     0     0 1.2708e+08    0  314 1.4392e+08 1.2708e+08  11.7%     -   39s
     0     0 1.2708e+08    0  312 1.4392e+08 1.2708e+08  11.7%     -   40s
     0     0 1.2708e+08    0  263 1.4392e+08 1.2708e+08  11.7%     -   41s
     0     2 1.2708e+08    0  251 1.4392e+08 1.2708e+08  11.7%     -   44s
     3     8 1.2708e+08    2  263 1.4392e+08 1.2708e+08  11.7%   147   45s
H   26    56                    1.436557e+08 1.2708e+08  11.5%  57.4   48s
    55    94 1.2708e+08    7  260 1.4366e+08 1.2708e+08  11.5%  29.6   50s
H   93   172                    1.426707e+08 1.2708e+08  10.9%  20.6   62s
H   98   172                    1.421842e+08 1.2708e+08  10.6%  19.7   62s
   171   716 1.2708e+08   10  261 1.4218e+08 1.2708e+08  10.6%  12.9   71s
   715  1529 1.2708e+08   59  245 1.4218e+08 1.2708e+08  10.6%   7.6   82s
H 1528  1995                    1.407154e+08 1.2708e+08  9.69%   6.6   90s
H 1640  1995                    1.407087e+08 1.2708e+08  9.68%   6.5   90s
H 1696  1995                    1.406793e+08 1.2708e+08  9.66%   6.4   90s
  1994  2003 1.2708e+08  201  207 1.4068e+08 1.2708e+08  9.66%   5.9   98s
  2002  2458 1.2708e+08  202  207 1.4068e+08 1.2708e+08  9.66%   5.9  105s
  2457  2989 1.2708e+08  259  208 1.4068e+08 1.2708e+08  9.66%   5.4  112s
H 2988  3109                    1.396249e+08 1.2708e+08  8.98%   5.2  133s
H 3104  3109                    1.392014e+08 1.2708e+08  8.70%   5.2  133s
  3108  3791 1.2708e+08  332  193 1.3920e+08 1.2708e+08  8.70%   5.2  140s
H 3790  3859                    1.306138e+08 1.2708e+08  2.70%   5.0  156s
H 3833  3859                    1.305606e+08 1.2708e+08  2.66%   5.0  156s
H 3855  3859                    1.271094e+08 1.2708e+08  0.02%   5.0  156s

Cutting planes:
  Gomory: 200
  Cover: 170
  Implied bound: 92
  MIR: 478
  Flow cover: 309
  Flow path: 4
  Network: 1
  RLT: 59
  Relax-and-lift: 195

Explored 3858 nodes (96300 simplex iterations) in 156.40 seconds (140.13 work units)
Thread count was 8 (of 8 available processors)

Solution count 10: 1.27109e+08 1.30561e+08 1.30614e+08 ... 1.42671e+08

Optimal solution found (tolerance 3.00e-02)
Best objective 1.271093667683e+08, best bound 1.270841123074e+08, gap 0.0199%

